% Número total de personas
n = 150;

% Número de opiniones posibles
m = 3;

% Distribución inicial de personas por opinión
p = [130, 9, 11];

% Valores de las opiniones
v = [122, 395, 999];

% Costos extras al mover a opiniones vacías
ce = [17487, 17207, 10544];

% Matriz de costos de mover de una opinión a otra
C = array2d(1..3, 1..3,
  [
    0,    3065,    5890,
    540,    0,    5371,
    988,    210,    0
  ]);

% Costo total máximo permitido
C_max = 36290;

% Número máximo de movimientos permitidos
M_max = 17;
